NAME : kroC100-C-3-1-a__wo_group_embedding_same_priority_ls20__22662.tour
COMMENT : Length = 22662.000
COMMENT : Generated by evaluate_ctspd.py for wo_group_embedding_same_priority_ls20
TYPE : TOUR
DIMENSION : 100
TOUR_SECTION
60
4
93
12
40
85
1
53
24
32
26
7
82
78
9
61
46
49
18
29
37
16
51
63
44
66
48
84
11
52
87
96
97
81
45
92
19
99
10
14
36
57
33
100
74
69
3
73
59
41
89
21
70
76
91
94
95
86
5
43
56
38
71
72
39
28
88
98
58
34
90
25
17
8
22
75
83
62
50
23
30
68
35
2
77
80
65
54
6
47
31
67
55
42
20
64
79
13
15
27
-1
EOF
